(declare-const a Real)
(declare-const b Real)
(declare-const c Real)
(assert (= (+ a b c) 3))
(assert (not (<= (+ (* a b) (* a c) (* b c) (* -1 (pow (+ 1 (pow b 2) (pow c 2)) -1) (pow (+ a (pow b 2) (pow c 2)) 2))) 0)))
(check-sat)
(get-model)
(exit)